01012009
26012009
10042009
11042009
13042009
08062009
03082009
05102009
25122009
28122009
01012010
26012010
02042010
03042010
05042010
26042010
14062010
02082010
04102010
25122010
27122010
01012011
26012011
22042011
23042011
25042011
13062011
01082011
03102011
26122011
27122011